!File created by the GAMESS Input Deck Generator Plugin for Avogadro
 $BASIS GBASIS=STO NGAUSS=3 $END
 $CONTRL SCFTYP=RHF RUNTYP=SADPOINT NZVAR=1 mult=1  ICHARG=0 $END
 $STATPT hssend=.t. OPTTOL=0.0005 NSTEP=50 $END
 $STATPT HESS=calc ihrep=5 $END
 $FORCE nvib=2 $END
 $ZMAT DLC=.t. auto=.t. nonvdw(1)=4,17,5,18,17,18,4,5 $END
!$ZMAT IFZMAT(1)=1,4,17,1,5,18,1,17,18 fvalue(1)=2.08,2.01,1.98 $END

 $DATA 
Title
C1
C     6.0    -0.44984952     1.02240098     0.62774652
C     6.0    -1.02328897     0.13052535    -0.50331539
C     6.0    -0.16044521    -1.15312040    -0.46953133
C     6.0     0.98966861     0.53587329     0.78196502
C     6.0     1.19804299    -0.68821180     0.10437270
C     6.0     2.19417953    -1.73153901     0.63094527
H     1.0    -0.99170107     0.85390067     1.55928159
H     1.0    -0.52577579     2.08216596     0.39267585
H     1.0    -0.91039336     0.62610465    -1.46360803
H     1.0    -2.07782340    -0.08851946    -0.35978410
H     1.0    -0.08239564    -1.64377713    -1.43504226
H     1.0    -0.57567185    -1.86778688     0.24187227
H     1.0     1.60857749     0.83510405     1.61531210
H     1.0     1.80717802    -2.14041090     1.56299281
H     1.0     3.15893745    -1.27566540     0.83074093
H     1.0     2.32732272    -2.54243088    -0.07762565
B     5.0     2.11296058     0.93038368    -0.92360723
H     1.0     2.06563306    -0.89158171    -1.69730103
H     1.0     1.43971550     1.56260586    -1.61223209
H     1.0     3.19481683     1.09932208    -0.56347036
 $END
