!File created by the GAMESS Input Deck Generator Plugin for Avogadro
 $BASIS GBASIS=STO NGAUSS=3 $END
 $CONTRL SCFTYP=RHF RUNTYP=OPTIMIZE NZVAR=1 mult=1  ICHARG=0 $END
 $STATPT hssend=.t. OPTTOL=0.0005 NSTEP=50 $END
 $STATPT HESS=calc ihrep=5 $END
 $FORCE nvib=2 $END
 $ZMAT DLC=.t. auto=.t. nonvdw(1)=1.6.3.4 $END
 $ZMAT IFZMAT(1)=1.1.6.1.3.4 fvalue(1)=2.00.2.00 $END

 $DATA 
Title
C1
C     6.0    -1.39355    -0.00153     0.24531
C     6.0    -0.75584    -1.30968    -0.29581
C     6.0     0.68464    -1.53827     0.17500
Br    35.0     1.68727     0.00021    -0.34134
C     6.0     0.68312     1.53731     0.17614
C     6.0    -0.75713     1.30764    -0.29485
H     1.0    -1.38361    -0.00194     1.35692
H     1.0    -2.45567    -0.00193    -0.08270
H     1.0    -0.78707    -1.29277    -1.40712
H     1.0    -1.36483    -2.17287     0.04932
H     1.0     1.11382    -2.46279    -0.26483
H     1.0     0.70141    -1.61383     1.28297
H     1.0     1.11139     2.46257    -0.26301
H     1.0     0.69982     1.61207     1.28416
H     1.0    -0.78835     1.29153    -1.40617
H     1.0    -1.36697     2.16998     0.05092
 $END
