!   File created by the GAMESS Input Deck Generator Plugin for Avogadro
 $BASIS GBASIS=STO NGAUSS=3 $END
 $CONTRL SCFTYP=RHF RUNTYP=ENERGY $END

 $DATA 
Title
C1
C     6.0    -0.36849     1.04031     0.45067
C     6.0    -1.00903     0.07761    -0.56164
C     6.0    -0.40777    -1.28646    -0.21009
C     6.0     0.94736     0.44256     0.70930
C     6.0     0.92523    -0.85603     0.34128
C     6.0     2.32572    -1.39112     0.32550
H     1.0    -0.92378     1.02072     1.41379
H     1.0    -0.33852     2.07874     0.05733
H     1.0    -0.62315     0.37350    -1.56108
H     1.0    -2.11645     0.11555    -0.63146
H     1.0    -0.38944    -2.00213    -1.05961
H     1.0    -0.97474    -1.71922     0.64231
H     1.0     1.68152     0.90689     1.42044
H     1.0     2.25244    -2.35582     0.86882
H     1.0     3.09077    -0.86523     0.94896
H     1.0     2.73128    -1.70804    -0.66210
B     5.0     2.39332     0.89289    -0.71552
H     1.0     1.31082    -0.51282    -1.60030
H     1.0     2.09866     2.00163    -1.02089
H     1.0     3.56862     0.74524    -0.70047
 $END
