!File created by the GAMESS Input Deck Generator Plugin for Avogadro
 $BASIS GBASIS=STO NGAUSS=3 $END
 $CONTRL SCFTYP=RHF RUNTYP=SADPOINT NZVAR=1 mult=1  ICHARG=0 $END
 $STATPT hssend=.t. OPTTOL=0.0005 NSTEP=50 $END
 $STATPT HESS=calc ihrep=5 $END
 $FORCE nvib=2 $END
 $ZMAT DLC=.t. auto=.t. nonvdw(1)=4,17,5,18,17,18,4,5 $END
!$ZMAT IFZMAT(1)=1,4,17,1,5,18,1,17,18 fvalue(1)=2.08,2.01,1.98 $END

 $DATA 
Title
C1
C     6.0    -0.40666255     1.05431664     0.58198196
C     6.0    -1.01960385     0.12843610    -0.50031555
C     6.0    -0.14468837    -1.15020406    -0.48498091
C     6.0     1.05590916     0.59882689     0.68071407
C     6.0     1.18537343    -0.70253116     0.14658619
C     6.0     2.21845341    -1.73586607     0.59510320
H     1.0    -0.90324819     0.90455413     1.54064357
H     1.0    -0.49897107     2.10452771     0.31728810
H     1.0    -0.96016985     0.60304761    -1.47526252
H     1.0    -2.06259251    -0.10168184    -0.30060574
H     1.0    -0.01436783    -1.59689713    -1.46738279
H     1.0    -0.56664455    -1.90696239     0.17621568
H     1.0     1.63761246     0.89466619     1.54173219
H     1.0     1.81347871    -2.26747584     1.45405102
H     1.0     3.14296150    -1.24811673     0.88662392
H     1.0     2.42245722    -2.45337462    -0.19399330
B     5.0     1.96139598     0.78994763    -0.77773225
H     1.0     2.04179215    -0.26787031    -1.33027315
H     1.0     1.34037364     1.47326374    -1.46797538
H     1.0     3.02880788     1.08802903    -0.45790151
 $END
